19
7
7 0 14 18 5 12 15 1 16
2 11 13 16 3 6 10 5 15 14 8 1 17 18
16 15 5 13 9 8 1 3 17 0 12 4 7 10 11
6 3 18 1 5 16 2 17 0 4 9 10 15 13
12 4 13 14 5 15 2 17 9 8 1 6
8 5 11 18 12 15 10 2 0 14 9 4 3 13 17 16 1 7 6
9 10 12 6 18 16 11 7 4 8 1 2 3
